1
Lattice="-1.434999898803489 1.434999898803489 1.434999898803489 1.434999898803489 -1.434999898803489 1.434999898803489 1.434999898803489 1.434999898803489 -1.434999898803489" Properties=species:S:1:pos:R:3 atomscope="_JSON {\"id\": \"10d83945b68f-final\", \"constraints\": [], \"name\": \"iron-reference (result)\", \"charge\": 0.0, \"multiplicity\": null, \"uids\": [\"75a87390a864\"], \"labels\": [null], \"formal_charges\": [0], \"bonds\": [], \"residues\": [], \"properties\": {}, \"atomic_scalars\": {\"cppaw_charge\": {\"values\": [-0.0], \"unit\": \"e\", \"description\": \"Q[E] from ATOMLIST\"}}, \"atomic_vectors\": {}, \"provenance\": {\"source\": \"calculation:10d83945b68f\", \"created_at\": \"2026-09-07T11:09:51.158073Z\", \"software\": \"cppaw\", \"parents\": [\"7929d7a8ce09\"], \"notes\": \"\"}}" pbc="T T T"
Fe       0.00000000       0.00000000       0.00000000
