3
Lattice="0.0 5.999999576878701 5.999999576878701 5.999999576878701 0.0 5.999999576878701 5.999999576878701 5.999999576878701 0.0" Properties=species:S:1:pos:R:3 atomscope="_JSON {\"id\": \"2cf06a77d5f1-final\", \"constraints\": [], \"name\": \"water-wavefunction (result)\", \"charge\": 0.0, \"multiplicity\": null, \"uids\": [\"d6d73946e46c\", \"fbb71cdad29b\", \"3233d56c9b2e\"], \"labels\": [null, null, null], \"formal_charges\": [0, 0, 0], \"bonds\": [], \"residues\": [], \"properties\": {}, \"atomic_scalars\": {\"cppaw_charge\": {\"values\": [-0.55463, 0.27722, 0.2774], \"unit\": \"e\", \"description\": \"Q[E] from ATOMLIST\"}}, \"atomic_vectors\": {}, \"provenance\": {\"source\": \"calculation:2cf06a77d5f1\", \"created_at\": \"2026-09-07T10:56:04.067336Z\", \"software\": \"cppaw\", \"parents\": [\"d12ed61c83d9\"], \"notes\": \"\"}}" pbc="T T T"
O        0.00000000       0.00000000       0.00000000
H        1.04999993       0.00000000       0.00000000
H        0.00000000       1.04999993       0.00000000
