3
Lattice="0.0 5.999999576878701 5.999999576878701 5.999999576878701 0.0 5.999999576878701 5.999999576878701 5.999999576878701 0.0" Properties=species:S:1:pos:R:3 atomscope="_JSON {\"id\": \"b0b2d1f5c1a1-final\", \"constraints\": [], \"name\": \"water-relax (result)\", \"charge\": 0.0, \"multiplicity\": null, \"uids\": [\"d6d73946e46c\", \"fbb71cdad29b\", \"3233d56c9b2e\"], \"labels\": [null, null, null], \"formal_charges\": [0, 0, 0], \"bonds\": [], \"residues\": [], \"properties\": {}, \"atomic_scalars\": {\"cppaw_charge\": {\"values\": [-0.61324, 0.30662, 0.30662], \"unit\": \"e\", \"description\": \"Q[E] from ATOMLIST\"}}, \"atomic_vectors\": {\"forces\": {\"values\": [[-0.20157450299468416, -0.20157450299468416, -0.0], [0.04216609501419413, 0.12084185766262953, 0.0], [0.12084185766262953, 0.04216609501419413, -0.0]], \"unit\": \"eV/angstrom\", \"description\": \"forces from the last ATOMLIST report (printed to 0.01 mH/Bohr)\"}}, \"provenance\": {\"source\": \"calculation:b0b2d1f5c1a1\", \"created_at\": \"2026-09-07T10:56:35.462700Z\", \"software\": \"cppaw\", \"parents\": [\"d12ed61c83d9\"], \"notes\": \"\"}}" pbc="T T T"
O        0.01441040       0.01440408      -0.00000104
H        0.98745623      -0.11430100      -0.00001845
H       -0.11428365       0.98745094       0.00002225
